language ESSENCE' 1.0

letting fixed be 
[
    [0,1,6,0,0,7,8,0,3],
    [0,9,0,8,0,0,0,0,0],
    [8,7,0,0,0,1,2,6,0],
    [0,4,8,0,0,0,3,0,0],
    [6,5,0,0,0,9,0,8,2],
    [0,3,9,0,0,0,6,5,0],
    [0,6,0,9,0,0,0,2,0],
    [0,8,0,0,0,2,9,3,6],
    [9,2,4,6,0,0,5,1,0]
]

